2636, 0, 0, 73, 4
2637, 0, 1, 34, 3
2638, 0, 2, 72, 1
2639, 0, 3, 32, 2
2640, 0, 4, 77, 0
2641, 1, 0, 47, 2
2642, 1, 1, 59, 4
2643, 1, 2, 62, 1
2644, 1, 3, 58, 3
2645, 1, 4, 35, 0
2646, 2, 0, 46, 2
2647, 2, 1, 98, 4
2648, 2, 2, 86, 1
2649, 2, 3, 96, 3
2650, 2, 4, 92, 0
2651, 3, 0, 32, 1
2652, 3, 1, 37, 4
2653, 3, 2, 51, 2
2654, 3, 3, 53, 0
2655, 3, 4, 91, 3